50
    1   242   281
    2   442   442
    3   468   356
    4   168   425
    5   377   214
    6   357   263
    7   217    75
    8   419    41
    9   194   319
   10   134   312
   11   487   325
   12   127   237
   13   299   310
   14   430   386
   15   359   306
   16   500   346
   17    30   207
   18   238   118
   19   386   179
   20   169   208
   21   253    51
   22    59   453
   23   140   238
   24    96   500
   25    57   182
   26    70   470
   27   384   324
   28   247   157
   29    86   315
   30    28   497
   31   361   419
   32   456   177
   33    24   285
   34   475   335
   35   339   306
   36   353    15
   37   285    98
   38   483   114
   39   458   202
   40   347   180
   41   368   353
   42   129    63
   43    49   448
   44   303   159
   45   378   125
   46   311   156
   47   336   471
   48   184   415
   49   412   481
   50   437   202
2256
